(set-logic HORN)
(declare-fun inv ((_ BitVec 64) (_ BitVec 64)) Bool)
(assert (forall ((x (_ BitVec 64)) (z (_ BitVec 64)))
  (=> (and (= x #x00000000000003e8) (= z #x0000000000000064)) (inv x z))))
(assert (forall ((x (_ BitVec 64))
         (z (_ BitVec 64))
         (x! (_ BitVec 64))
         (z! (_ BitVec 64)))
  (let ((a!1 (= x!
                (ite (bvult (bvudiv x #x000000000000000a) z)
                     (bvadd x #x0000000000000001)
                     (bvsub x #x0000000000000001))))
        (a!2 (= z!
                (ite (bvult (bvudiv x #x000000000000000a) z)
                     (bvsub z #x0000000000000001)
                     (bvadd z #x0000000000000001)))))
    (=> (and (inv x z) a!1 a!2) (inv x! z!)))))
(assert (forall ((x (_ BitVec 64)) (z (_ BitVec 64))) (=> (inv x z) (bvule x z))))
(check-sat)
